424 5
10 10 10 10 10 

0 0 0 0 0 0 5 2 14 26 38 50 
0 0 0 0 0 0 1 3 
10 0 0 3 0 0 2 5 4 
9 0 0 6 0 0 2 8 6 
7 0 0 6 0 0 2 8 6 
6 0 0 6 0 0 1 7 
1 0 0 4 0 0 1 9 
5 0 0 3 0 0 1 9 
1 0 0 10 0 0 1 10 
9 0 0 4 0 0 2 12 11 
10 0 0 5 0 0 1 13 
9 0 0 3 0 0 1 13 
0 0 0 0 0 0 1 62 
0 0 0 0 0 0 1 15 
9 0 0 1 0 0 2 17 16 
2 0 0 5 0 0 2 20 18 
5 0 0 6 0 0 2 20 19 
1 0 0 2 0 0 1 19 
5 0 0 3 0 0 1 21 
9 0 0 5 0 0 1 21 
10 0 0 4 0 0 2 24 22 
9 0 0 6 0 0 1 23 
5 0 0 9 0 0 1 25 
6 0 0 9 0 0 1 25 
0 0 0 0 0 0 1 62 
0 0 0 0 0 0 1 27 
5 0 0 1 0 0 2 29 28 
2 0 0 3 0 0 2 32 30 
8 0 0 3 0 0 2 33 32 
6 0 0 5 0 0 1 31 
6 0 0 8 0 0 2 36 33 
2 0 0 10 0 0 2 36 34 
1 0 0 8 0 0 1 34 
3 0 0 3 0 0 1 35 
10 0 0 3 0 0 1 37 
4 0 0 6 0 0 1 37 
0 0 0 0 0 0 1 62 
0 0 0 0 0 0 1 39 
2 0 0 0 1 0 3 43 41 40 
8 0 0 0 4 0 1 42 
9 0 0 0 6 0 1 42 
4 0 0 0 5 0 2 46 44 
3 0 0 0 10 0 2 46 44 
1 0 0 0 4 0 1 45 
6 0 0 0 7 0 1 47 
9 0 0 0 6 0 1 47 
4 0 0 0 3 0 1 48 
3 0 0 0 4 0 1 49 
0 0 0 0 0 0 1 62 
0 0 0 0 0 0 3 51 57 58 
4 0 0 0 1 0 2 60 52 
10 0 0 0 5 0 1 53 
5 0 0 0 7 0 1 54 
8 0 0 0 7 0 1 55 
9 0 0 0 4 0 1 56 
10 0 0 0 4 0 1 59 
6 0 0 0 10 0 1 60 
7 0 0 0 3 0 1 59 
5 0 0 0 4 0 1 61 
7 0 0 0 5 0 1 61 
0 0 0 0 0 0 1 62 
0 0 0 0 0 0 5 63 75 87 99 111 
0 0 0 0 0 0 2 64 68 
3 1 0 0 0 0 1 65 
1 4 0 0 0 0 2 73 66 
6 7 0 0 0 0 2 71 67 
10 6 0 0 0 0 1 69 
10 5 0 0 0 0 1 69 
9 7 0 0 0 0 1 70 
1 5 0 0 0 0 1 72 
1 6 0 0 0 0 1 72 
3 4 0 0 0 0 1 74 
5 5 0 0 0 0 1 74 
0 0 0 0 0 0 1 123 
0 0 0 0 0 0 2 76 85 
10 0 1 0 0 0 3 84 80 77 
7 0 3 0 0 0 1 78 
6 0 6 0 0 0 1 79 
5 0 4 0 0 0 1 81 
10 0 4 0 0 0 1 81 
4 0 3 0 0 0 1 82 
5 0 7 0 0 0 1 83 
9 0 9 0 0 0 1 86 
5 0 8 0 0 0 1 86 
6 0 5 0 0 0 1 86 
0 0 0 0 0 0 1 123 
0 0 0 0 0 0 1 88 
7 0 0 0 0 1 2 90 89 
9 0 0 0 0 4 2 93 91 
2 0 0 0 0 7 2 93 92 
1 0 0 0 0 6 2 94 92 
10 0 0 0 0 2 1 95 
10 0 0 0 0 9 1 94 
3 0 0 0 0 6 1 96 
3 0 0 0 0 5 1 96 
8 0 0 0 0 6 1 97 
6 0 0 0 0 4 1 98 
0 0 0 0 0 0 1 123 
0 0 0 0 0 0 1 100 
4 1 0 0 0 0 1 101 
4 4 0 0 0 0 1 102 
8 2 0 0 0 0 3 105 104 103 
4 5 0 0 0 0 2 107 106 
2 7 0 0 0 0 2 107 106 
6 5 0 0 0 0 1 106 
8 8 0 0 0 0 1 108 
3 4 0 0 0 0 1 108 
2 7 0 0 0 0 1 109 
4 7 0 0 0 0 1 110 
0 0 0 0 0 0 1 123 
0 0 0 0 0 0 2 112 118 
8 0 0 1 0 0 2 121 113 
6 0 0 3 0 0 1 114 
6 0 0 8 0 0 2 120 115 
9 0 0 4 0 0 1 116 
1 0 0 6 0 0 1 117 
7 0 0 5 0 0 1 119 
3 0 0 9 0 0 1 121 
9 0 0 4 0 0 1 122 
9 0 0 5 0 0 1 122 
1 0 0 5 0 0 1 122 
0 0 0 0 0 0 1 123 
0 0 0 0 0 0 5 124 156 188 220 232 
0 0 0 0 0 0 3 125 153 154 
10 0 2 1 0 1 1 126 
3 0 5 3 0 7 2 152 127 
8 0 7 3 0 7 2 151 128 
3 0 9 5 0 8 1 129 
3 0 6 7 0 6 2 150 130 
5 0 2 6 0 3 3 149 148 131 
4 0 10 4 0 6 1 132 
5 0 4 5 0 5 1 133 
2 0 4 6 0 7 1 134 
4 0 5 7 0 10 1 135 
6 0 5 4 0 5 1 136 
2 0 7 6 0 5 2 147 137 
9 0 4 3 0 4 1 138 
10 0 3 4 0 4 1 139 
2 0 7 4 0 6 1 140 
3 0 4 8 0 3 1 141 
3 0 6 5 0 5 1 142 
6 0 2 7 0 5 1 143 
10 0 6 3 0 4 1 144 
10 0 1 3 0 3 1 145 
6 0 3 7 0 4 1 146 
8 0 6 4 0 6 1 155 
1 0 3 6 0 7 1 155 
3 0 7 3 0 6 1 155 
7 0 4 7 0 4 1 155 
3 0 4 6 0 3 1 155 
5 0 8 8 0 4 1 155 
3 0 4 3 0 2 1 155 
6 0 5 8 0 8 1 155 
2 0 7 4 0 2 1 155 
0 0 0 0 0 0 1 424 
0 0 0 0 0 0 2 157 160 
9 1 1 0 0 4 1 158 
2 5 7 0 0 3 1 159 
1 8 3 0 0 3 1 161 
9 5 5 0 0 3 1 161 
10 9 5 0 0 5 1 162 
9 7 6 0 0 7 2 166 163 
6 4 3 0 0 4 1 164 
2 5 8 0 0 6 1 165 
7 3 7 0 0 4 3 169 168 167 
10 4 3 0 0 5 1 167 
3 6 6 0 0 5 2 171 170 
1 7 4 0 0 6 1 170 
8 7 6 0 0 6 1 170 
5 3 2 0 0 5 3 175 173 172 
9 1 8 0 0 2 3 175 173 172 
6 4 6 0 0 10 1 174 
9 4 3 0 0 5 1 174 
10 6 2 0 0 3 1 176 
3 4 5 0 0 7 1 176 
2 6 5 0 0 4 1 177 
9 4 2 0 0 7 1 178 
1 7 10 0 0 6 2 181 179 
8 7 4 0 0 3 1 180 
8 7 8 0 0 4 1 182 
9 5 3 0 0 5 1 182 
8 6 6 0 0 3 1 183 
1 5 6 0 0 9 1 184 
7 1 4 0 0 2 1 185 
6 6 4 0 0 7 1 186 
5 3 8 0 0 7 1 187 
0 0 0 0 0 0 1 424 
0 0 0 0 0 0 2 189 194 
3 1 1 0 1 0 1 190 
8 6 6 0 6 0 1 191 
10 10 5 0 2 0 1 192 
3 5 5 0 7 0 1 193 
10 7 5 0 7 0 2 200 195 
2 4 5 0 6 0 1 195 
7 6 3 0 4 0 1 196 
9 7 8 0 6 0 1 197 
8 1 5 0 3 0 3 202 201 198 
7 5 4 0 6 0 2 204 199 
10 6 4 0 7 0 3 207 206 203 
1 5 2 0 5 0 3 207 206 203 
8 6 4 0 1 0 2 206 203 
5 7 4 0 2 0 2 206 203 
3 7 9 0 5 0 1 205 
3 6 5 0 6 0 1 205 
3 4 6 0 4 0 1 208 
9 1 2 0 7 0 1 208 
4 4 5 0 3 0 1 208 
7 7 5 0 6 0 1 209 
4 2 6 0 5 0 1 210 
3 5 4 0 8 0 2 214 211 
4 5 7 0 3 0 1 212 
3 7 4 0 4 0 1 213 
5 6 6 0 3 0 1 215 
6 4 5 0 7 0 1 215 
9 3 4 0 4 0 1 216 
1 5 6 0 9 0 1 217 
9 4 8 0 7 0 1 218 
8 4 7 0 6 0 1 219 
0 0 0 0 0 0 1 424 
0 0 0 0 0 0 1 221 
3 0 0 1 0 0 1 222 
3 0 0 7 0 0 2 227 223 
1 0 0 6 0 0 1 224 
7 0 0 3 0 0 2 230 225 
5 0 0 5 0 0 2 229 226 
2 0 0 4 0 0 1 228 
5 0 0 6 0 0 1 228 
5 0 0 10 0 0 1 231 
10 0 0 2 0 0 1 231 
3 0 0 6 0 0 1 231 
0 0 0 0 0 0 5 264 286 308 330 342 
0 0 0 0 0 0 2 233 262 
3 0 1 4 0 2 1 234 
7 0 10 3 0 1 1 235 
8 0 6 5 0 6 1 236 
9 0 7 3 0 7 1 237 
4 0 6 10 0 7 3 261 260 238 
9 0 8 4 0 6 3 259 258 239 
7 0 6 3 0 6 3 257 256 240 
5 0 4 8 0 4 1 241 
1 0 5 4 0 6 1 242 
2 0 4 6 0 3 1 243 
5 0 5 4 0 7 1 244 
3 0 5 6 0 6 2 255 245 
1 0 4 6 0 6 1 246 
10 0 4 5 0 3 1 247 
5 0 3 1 0 5 1 248 
10 0 4 4 0 2 1 249 
5 0 9 8 0 3 1 250 
8 0 3 10 0 3 1 251 
9 0 8 5 0 4 1 252 
8 0 1 2 0 10 1 253 
5 0 6 5 0 4 1 254 
3 0 5 4 0 3 1 263 
8 0 6 8 0 9 1 263 
7 0 4 3 0 6 1 263 
7 0 6 6 0 6 1 263 
2 0 3 5 0 6 1 263 
7 0 7 4 0 4 1 263 
8 0 3 4 0 4 1 263 
10 0 2 3 0 7 1 263 
6 0 5 7 0 4 1 263 
0 0 0 0 0 0 1 424 
0 0 0 0 0 0 2 265 272 
7 1 0 1 0 0 1 266 
7 3 0 4 0 0 2 278 267 
2 2 0 5 0 0 2 284 268 
1 3 0 3 0 0 1 269 
9 3 0 7 0 0 2 283 270 
6 6 0 3 0 0 1 271 
4 6 0 8 0 0 2 277 273 
7 7 0 5 0 0 2 284 273 
4 3 0 3 0 0 1 274 
3 8 0 9 0 0 1 275 
1 6 0 5 0 0 1 276 
7 9 0 10 0 0 1 279 
8 5 0 5 0 0 1 279 
1 5 0 5 0 0 1 279 
2 5 0 7 0 0 1 280 
2 6 0 4 0 0 1 281 
9 8 0 1 0 0 1 282 
6 6 0 7 0 0 1 285 
4 2 0 4 0 0 1 285 
7 6 0 4 0 0 1 285 
0 0 0 0 0 0 1 424 
0 0 0 0 0 0 1 287 
7 0 1 0 0 1 2 292 288 
2 0 7 0 0 9 2 296 289 
4 0 6 0 0 5 2 304 290 
8 0 6 0 0 4 1 291 
4 0 4 0 0 5 2 301 293 
1 0 5 0 0 4 3 304 301 295 
10 0 4 0 0 8 1 294 
5 0 5 0 0 6 1 295 
8 0 5 0 0 6 2 299 297 
6 0 8 0 0 3 2 304 300 
7 0 4 0 0 8 1 298 
3 0 5 0 0 5 1 300 
3 0 5 0 0 5 1 300 
10 0 6 0 0 2 1 302 
7 0 5 0 0 4 1 302 
7 0 1 0 0 3 1 303 
2 0 7 0 0 6 1 305 
8 0 7 0 0 5 1 305 
2 0 4 0 0 7 1 306 
1 0 5 0 0 4 1 307 
0 0 0 0 0 0 1 424 
0 0 0 0 0 0 2 309 311 
6 0 0 2 1 0 2 314 310 
2 0 0 5 8 0 1 312 
2 0 0 8 3 0 1 312 
2 0 0 1 7 0 1 313 
4 0 0 4 3 0 1 315 
1 0 0 5 8 0 1 315 
4 0 0 7 2 0 3 328 321 316 
7 0 0 4 6 0 1 317 
10 0 0 5 3 0 1 318 
10 0 0 7 5 0 1 319 
6 0 0 3 2 0 2 327 320 
8 0 0 5 4 0 1 322 
6 0 0 6 5 0 1 322 
8 0 0 4 6 0 1 323 
8 0 0 6 4 0 1 324 
9 0 0 4 8 0 1 325 
9 0 0 6 6 0 1 326 
6 0 0 4 8 0 1 329 
3 0 0 4 5 0 1 329 
8 0 0 10 6 0 1 329 
0 0 0 0 0 0 1 424 
0 0 0 0 0 0 2 331 334 
4 0 0 0 1 0 1 332 
6 0 0 0 5 0 1 333 
3 0 0 0 5 0 2 340 335 
7 0 0 0 2 0 2 338 337 
1 0 0 0 5 0 1 336 
3 0 0 0 5 0 1 337 
7 0 0 0 4 0 1 339 
9 0 0 0 9 0 1 339 
2 0 0 0 8 0 1 341 
9 0 0 0 6 0 1 341 
0 0 0 0 0 0 5 364 376 388 400 412 
0 0 0 0 0 0 3 343 352 357 
8 1 0 1 0 0 1 344 
5 7 0 4 0 0 1 345 
1 6 0 9 0 0 1 346 
3 7 0 4 0 0 2 361 347 
6 6 0 6 0 0 1 348 
8 3 0 4 0 0 1 349 
6 4 0 1 0 0 2 360 350 
10 5 0 10 0 0 1 351 
4 6 0 3 0 0 1 353 
7 6 0 6 0 0 2 362 355 
1 3 0 9 0 0 1 354 
8 10 0 6 0 0 1 355 
2 4 0 7 0 0 1 356 
7 5 0 3 0 0 1 358 
3 2 0 6 0 0 1 358 
1 5 0 4 0 0 1 359 
7 4 0 1 0 0 1 363 
2 5 0 5 0 0 1 363 
3 8 0 8 0 0 1 363 
5 3 0 3 0 0 1 363 
0 0 0 0 0 0 1 424 
0 0 0 0 0 0 2 365 367 
7 0 0 0 0 1 1 366 
10 0 0 0 0 5 2 371 368 
8 0 0 0 0 4 2 371 368 
2 0 0 0 0 5 1 369 
10 0 0 0 0 9 1 370 
9 0 0 0 0 7 2 374 372 
1 0 0 0 0 5 2 374 373 
6 0 0 0 0 4 1 373 
8 0 0 0 0 5 1 375 
5 0 0 0 0 5 1 375 
0 0 0 0 0 0 1 424 
0 0 0 0 0 0 3 377 382 383 
7 0 1 0 0 0 1 378 
1 0 7 0 0 0 1 379 
8 0 7 0 0 0 1 380 
7 0 4 0 0 0 1 381 
8 0 6 0 0 0 2 386 384 
10 0 5 0 0 0 2 386 384 
2 0 4 0 0 0 1 384 
4 0 7 0 0 0 1 385 
4 0 5 0 0 0 1 387 
3 0 4 0 0 0 1 387 
0 0 0 0 0 0 1 424 
0 0 0 0 0 0 2 389 393 
8 0 0 0 0 1 1 390 
8 0 0 0 0 8 2 398 391 
5 0 0 0 0 4 1 392 
8 0 0 0 0 6 1 394 
6 0 0 0 0 4 1 395 
1 0 0 0 0 5 1 396 
7 0 0 0 0 6 1 396 
8 0 0 0 0 8 1 397 
7 0 0 0 0 3 1 399 
8 0 0 0 0 5 1 399 
0 0 0 0 0 0 1 424 
0 0 0 0 0 0 2 401 405 
4 0 0 0 0 1 2 410 402 
5 0 0 0 0 10 1 403 
10 0 0 0 0 5 1 404 
8 0 0 0 0 4 2 409 406 
6 0 0 0 0 4 2 409 408 
1 0 0 0 0 5 1 407 
10 0 0 0 0 3 1 408 
2 0 0 0 0 6 1 411 
7 0 0 0 0 8 1 411 
6 0 0 0 0 4 1 411 
0 0 0 0 0 0 1 424 
0 0 0 0 0 0 2 413 416 
2 0 0 0 0 1 1 414 
1 0 0 0 0 4 1 415 
3 0 0 0 0 4 1 417 
1 0 0 0 0 8 1 417 
8 0 0 0 0 6 3 422 421 418 
8 0 0 0 0 6 1 419 
5 0 0 0 0 3 1 420 
6 0 0 0 0 4 1 423 
2 0 0 0 0 4 1 423 
4 0 0 0 0 10 1 423 
0 0 0 0 0 0 1 424 
0 0 0 0 0 0 0 
